;; Mutation-Based Equivalence Benchmark
;; Source:     AutomatArk / instance00999.smt2
;; Mutations:  range_shrink_hi, range_expand_hi, bound_lower_inc
;; Status:     sat
;;
;; Original regex vs mutated regex
;; Equivalence check: unsat ⟺ L(R1) = L(R2)

(set-info :smt-lib-version 2.6)
(set-info :category "mutation")
(set-info :status sat)
(set-logic QF_S)


;; R1: original
;; R2: mutated (range_shrink_hi, range_expand_hi, bound_lower_inc)
(assert
  (not
    (=
      (re.union (str.to_re "0") (re.++ (str.to_re "0") ((_ re.loop 1 1) (str.to_re ".")) ((_ re.loop 1 2) (re.range "0" "9"))) (re.++ ((_ re.loop 1 1) (re.range "1" "9")) (re.* (re.range "0" "9")) (re.opt (str.to_re ".")) ((_ re.loop 1 2) (re.range "0" "9"))) (re.++ (re.+ (re.range "1" "9")) (re.* (re.range "0" "9")) (str.to_re "\u{a}")))
      (re.union (str.to_re "0") (re.++ (str.to_re "0") ((_ re.loop 1 1) (str.to_re ".")) ((_ re.loop 1 2) (re.range "0" "9"))) (re.++ ((_ re.loop 1 1) (re.range "1" "9")) (re.* (re.range "0" "9")) (re.opt (str.to_re ".")) ((_ re.loop 2 2) (re.range "0" ":"))) (re.++ (re.+ (re.range "1" "9")) (re.* (re.range "0" "8")) (str.to_re "\u{a}"))))))

(check-sat)
(exit)
